; DUP2 SWAP1 DUP2 SWAP1 PUSH cw_2 DUP1 => DUP2 DUP3 SWAP2 PUSH cw_2 PUSH cw_2
(set-option :produce-proofs true)
; 
(set-info :status unknown)
(declare-fun storage_t ((_ BitVec 256) (_ BitVec 256) (_ BitVec 256) Int (_ BitVec 256)) (_ BitVec 256))
(declare-fun w_2 () (_ BitVec 256))
(declare-fun storage_s ((_ BitVec 256) (_ BitVec 256) (_ BitVec 256) Int (_ BitVec 256)) (_ BitVec 256))
(declare-fun exc_halt_t (Int) Bool)
(declare-fun exc_halt_s (Int) Bool)
(declare-fun sc_t (Int) (_ BitVec 6))
(declare-fun stack_t ((_ BitVec 256) (_ BitVec 256) (_ BitVec 256) Int (_ BitVec 6)) (_ BitVec 256))
(declare-fun stack_s ((_ BitVec 256) (_ BitVec 256) (_ BitVec 256) Int (_ BitVec 6)) (_ BitVec 256))
(declare-fun sc_s (Int) (_ BitVec 6))
(declare-fun used_gas_t ((_ BitVec 256) (_ BitVec 256) (_ BitVec 256) Int) Int)
(declare-fun used_gas_s ((_ BitVec 256) (_ BitVec 256) (_ BitVec 256) Int) Int)
(assert
 (exists ((x_0 (_ BitVec 256)) (x_1 (_ BitVec 256)) )(let (($x9494 (forall ((w (_ BitVec 256)) )(let ((?x4267 (storage_t x_0 x_1 w_2 5 w)))
 (let ((?x1814 (storage_s x_0 x_1 w_2 6 w)))
 (= ?x1814 ?x4267))))
 ))
 (let (($x1885 (exc_halt_t 5)))
 (let (($x772 (exc_halt_s 6)))
 (let (($x11108 (= $x772 $x1885)))
 (let (($x2354 (forall ((n (_ BitVec 6)) )(let ((?x8961 (sc_t 5)))
 (let (($x11447 (bvsle ?x8961 n)))
 (let ((?x2254 (stack_t x_0 x_1 w_2 5 n)))
 (let ((?x1666 (stack_s x_0 x_1 w_2 6 n)))
 (let (($x1675 (= ?x1666 ?x2254)))
 (or $x1675 $x11447)))))))
 ))
 (let ((?x8961 (sc_t 5)))
 (let ((?x926 (sc_s 6)))
 (let (($x5889 (= ?x926 ?x8961)))
 (let ((?x2104 (used_gas_t x_0 x_1 w_2 0)))
 (let ((?x7835 (used_gas_s x_0 x_1 w_2 0)))
 (let (($x11553 (= ?x7835 ?x2104)))
 (let (($x2576 (forall ((w (_ BitVec 256)) )(let ((?x89 (storage_t x_0 x_1 w_2 0 w)))
 (let ((?x10680 (storage_s x_0 x_1 w_2 0 w)))
 (= ?x10680 ?x89))))
 ))
 (let (($x56 (exc_halt_t 0)))
 (let (($x57 (exc_halt_s 0)))
 (let (($x58 (= $x57 $x56)))
 (let (($x4693 (forall ((n (_ BitVec 6)) )(let ((?x5780 (stack_t x_0 x_1 w_2 0 n)))
 (let ((?x8745 (stack_s x_0 x_1 w_2 0 n)))
 (let (($x9679 (= ?x8745 ?x5780)))
 (let ((?x63 (sc_t 0)))
 (let (($x4174 (bvsle ?x63 n)))
 (or $x4174 $x9679)))))))
 ))
 (let ((?x63 (sc_t 0)))
 (let ((?x72 (sc_s 0)))
 (let (($x73 (= ?x72 ?x63)))
 (let (($x7854 (exc_halt_t 4)))
 (let (($x3648 (or $x7854 (not (= ((_ extract 6 6) (bvadd (_ bv1 7) (concat (_ bv0 1) (sc_t 4)))) (_ bv0 1))))))
 (let (($x1377 (forall ((w (_ BitVec 256)) )(let ((?x6992 (storage_t x_0 x_1 w_2 4 w)))
 (let ((?x4267 (storage_t x_0 x_1 w_2 5 w)))
 (= ?x4267 ?x6992))))
 ))
 (let (($x11383 (forall ((n (_ BitVec 6)) )(let ((?x4818 (sc_t 4)))
 (let (($x5613 (bvsle ?x4818 n)))
 (let ((?x8903 (stack_t x_0 x_1 w_2 4 n)))
 (let ((?x2254 (stack_t x_0 x_1 w_2 5 n)))
 (or (= ?x2254 ?x8903) $x5613))))))
 ))
 (let (($x1818 (= (used_gas_t x_0 x_1 w_2 5) (+ 3 (used_gas_t x_0 x_1 w_2 4)))))
 (let (($x1673 (not (= ((_ extract 6 6) (bvadd (_ bv1 7) (concat (_ bv0 1) (sc_t 3)))) (_ bv0 1)))))
 (let (($x3614 (exc_halt_t 3)))
 (let (($x9094 (forall ((w (_ BitVec 256)) )(let ((?x5922 (storage_t x_0 x_1 w_2 3 w)))
 (let ((?x6992 (storage_t x_0 x_1 w_2 4 w)))
 (= ?x6992 ?x5922))))
 ))
 (let (($x1709 (forall ((n (_ BitVec 6)) )(let ((?x8755 (stack_t x_0 x_1 w_2 3 n)))
 (let ((?x8903 (stack_t x_0 x_1 w_2 4 n)))
 (or (= ?x8903 ?x8755) (bvsle (sc_t 3) n)))))
 ))
 (let ((?x4818 (sc_t 4)))
 (let (($x4630 (= ?x4818 (bvadd (_ bv1 6) (sc_t 3)))))
 (let ((?x9473 (used_gas_t x_0 x_1 w_2 4)))
 (let (($x1269 (= $x3614 (or (exc_halt_t 2) (not (bvsle (_ bv0 6) (bvadd (_ bv61 6) (sc_t 2))))))))
 (let (($x5317 (forall ((w (_ BitVec 256)) )(let ((?x4178 (storage_t x_0 x_1 w_2 2 w)))
 (let ((?x5922 (storage_t x_0 x_1 w_2 3 w)))
 (= ?x5922 ?x4178))))
 ))
 (let (($x630 (forall ((n (_ BitVec 6)) )(let ((?x10726 (stack_t x_0 x_1 w_2 2 n)))
 (let ((?x8755 (stack_t x_0 x_1 w_2 3 n)))
 (or (bvsle (bvadd (_ bv61 6) (sc_t 2)) n) (= ?x8755 ?x10726)))))
 ))
 (let ((?x10188 (used_gas_t x_0 x_1 w_2 3)))
 (let (($x9898 (= (stack_t x_0 x_1 w_2 3 (bvadd (_ bv62 6) (sc_t 3))) (stack_t x_0 x_1 w_2 2 (bvadd (_ bv62 6) (sc_t 2))))))
 (let ((?x6158 (sc_t 2)))
 (let ((?x3122 (bvadd (_ bv63 6) ?x6158)))
 (let ((?x3833 (stack_t x_0 x_1 w_2 2 ?x3122)))
 (let (($x10173 (= (stack_t x_0 x_1 w_2 3 (bvadd (_ bv63 6) (sc_t 3))) (stack_t x_0 x_1 w_2 2 (bvadd (_ bv61 6) ?x6158)))))
 (let (($x10144 (not (= ((_ extract 6 6) (bvadd (_ bv1 7) (concat (_ bv0 1) (sc_t 1)))) (_ bv0 1)))))
 (let (($x8377 (exc_halt_t 1)))
 (let (($x11434 (exc_halt_t 2)))
 (let (($x11273 (forall ((w (_ BitVec 256)) )(let ((?x4627 (storage_t x_0 x_1 w_2 1 w)))
 (let ((?x4178 (storage_t x_0 x_1 w_2 2 w)))
 (= ?x4178 ?x4627))))
 ))
 (let (($x1465 (forall ((n (_ BitVec 6)) )(let ((?x10167 (stack_t x_0 x_1 w_2 1 n)))
 (let ((?x10726 (stack_t x_0 x_1 w_2 2 n)))
 (or (bvsle (bvadd (_ bv61 6) (sc_t 1)) n) (= ?x10726 ?x10167)))))
 ))
 (let (($x10587 (= ?x6158 (bvadd (_ bv1 6) (sc_t 1)))))
 (let ((?x5436 (used_gas_t x_0 x_1 w_2 2)))
 (let ((?x7154 (sc_t 1)))
 (let ((?x8470 (bvadd (_ bv63 6) ?x7154)))
 (let ((?x2070 (stack_t x_0 x_1 w_2 1 ?x8470)))
 (let (($x4021 (= (stack_t x_0 x_1 w_2 2 (bvadd (_ bv62 6) ?x7154)) (stack_t x_0 x_1 w_2 1 (bvadd (_ bv62 6) ?x7154)))))
 (let ((?x8848 (bvadd (_ bv61 6) ?x7154)))
 (let ((?x4474 (stack_t x_0 x_1 w_2 1 ?x8848)))
 (let (($x1567 (not (= ((_ extract 6 6) (bvadd (_ bv1 7) (concat (_ bv0 1) ?x63))) (_ bv0 1)))))
 (let (($x10988 (= $x8377 (or $x56 $x1567 (not (bvsle (_ bv0 6) (bvadd (_ bv62 6) ?x63)))))))
 (let (($x7490 (forall ((w (_ BitVec 256)) )(let ((?x89 (storage_t x_0 x_1 w_2 0 w)))
 (let ((?x4627 (storage_t x_0 x_1 w_2 1 w)))
 (= ?x4627 ?x89))))
 ))
 (let (($x5148 (forall ((n (_ BitVec 6)) )(let ((?x63 (sc_t 0)))
 (let ((?x5177 (bvadd (_ bv62 6) ?x63)))
 (let (($x10214 (bvsle ?x5177 n)))
 (let ((?x5780 (stack_t x_0 x_1 w_2 0 n)))
 (let ((?x10167 (stack_t x_0 x_1 w_2 1 n)))
 (or (= ?x10167 ?x5780) $x10214)))))))
 ))
 (let (($x3399 (= ?x7154 (bvadd (_ bv1 6) ?x63))))
 (let (($x5707 (= (stack_t x_0 x_1 w_2 1 (bvadd (_ bv63 6) ?x63)) (stack_t x_0 x_1 w_2 0 (bvadd (_ bv63 6) ?x63)))))
 (let ((?x5177 (bvadd (_ bv62 6) ?x63)))
 (let ((?x3667 (stack_t x_0 x_1 w_2 0 ?x5177)))
 (let (($x11317 (exc_halt_s 5)))
 (let (($x9791 (not (bvsle (_ bv0 6) (bvadd (_ bv63 6) (sc_s 5))))))
 (let (($x2460 (or (not (= ((_ extract 6 6) (bvadd (_ bv1 7) (concat (_ bv0 1) (sc_s 5)))) (_ bv0 1))) $x9791 $x11317)))
 (let (($x8429 (forall ((w (_ BitVec 256)) )(let ((?x11463 (storage_s x_0 x_1 w_2 5 w)))
 (let ((?x1814 (storage_s x_0 x_1 w_2 6 w)))
 (= ?x1814 ?x11463))))
 ))
 (let (($x7024 (forall ((n (_ BitVec 6)) )(let ((?x6057 (stack_s x_0 x_1 w_2 5 n)))
 (let ((?x1666 (stack_s x_0 x_1 w_2 6 n)))
 (let ((?x4319 (sc_s 5)))
 (let ((?x4176 (bvadd (_ bv63 6) ?x4319)))
 (let (($x5213 (bvsle ?x4176 n)))
 (or $x5213 (= ?x1666 ?x6057))))))))
 ))
 (let (($x1281 (= (used_gas_s x_0 x_1 w_2 6) (+ 3 (used_gas_s x_0 x_1 w_2 5)))))
 (let ((?x4319 (sc_s 5)))
 (let ((?x4176 (bvadd (_ bv63 6) ?x4319)))
 (let ((?x1335 (stack_s x_0 x_1 w_2 5 ?x4176)))
 (let (($x5185 (not (= ((_ extract 6 6) (bvadd (_ bv1 7) (concat (_ bv0 1) (sc_s 4)))) (_ bv0 1)))))
 (let (($x7172 (exc_halt_s 4)))
 (let (($x11606 (forall ((w (_ BitVec 256)) )(let ((?x5575 (storage_s x_0 x_1 w_2 4 w)))
 (let ((?x11463 (storage_s x_0 x_1 w_2 5 w)))
 (= ?x11463 ?x5575))))
 ))
 (let (($x10294 (forall ((n (_ BitVec 6)) )(let ((?x11244 (stack_s x_0 x_1 w_2 4 n)))
 (let ((?x6057 (stack_s x_0 x_1 w_2 5 n)))
 (or (= ?x6057 ?x11244) (bvsle (sc_s 4) n)))))
 ))
 (let (($x2447 (= ?x4319 (bvadd (_ bv1 6) (sc_s 4)))))
 (let ((?x6216 (used_gas_s x_0 x_1 w_2 5)))
 (let (($x10798 (= $x7172 (or (exc_halt_s 3) (not (bvsle (_ bv0 6) (bvadd (_ bv62 6) (sc_s 3))))))))
 (let (($x4683 (forall ((w (_ BitVec 256)) )(let ((?x8826 (storage_s x_0 x_1 w_2 3 w)))
 (let ((?x5575 (storage_s x_0 x_1 w_2 4 w)))
 (= ?x5575 ?x8826))))
 ))
 (let (($x10895 (forall ((n (_ BitVec 6)) )(let ((?x275 (sc_s 3)))
 (let ((?x4167 (bvadd (_ bv62 6) ?x275)))
 (let (($x6851 (bvsle ?x4167 n)))
 (let ((?x5261 (stack_s x_0 x_1 w_2 3 n)))
 (let ((?x11244 (stack_s x_0 x_1 w_2 4 n)))
 (or (= ?x11244 ?x5261) $x6851)))))))
 ))
 (let ((?x275 (sc_s 3)))
 (let ((?x4305 (sc_s 4)))
 (let (($x7278 (= ?x4305 ?x275)))
 (let ((?x3584 (used_gas_s x_0 x_1 w_2 4)))
 (let ((?x5573 (bvadd (_ bv63 6) ?x275)))
 (let ((?x9723 (stack_s x_0 x_1 w_2 3 ?x5573)))
 (let (($x8230 (= (stack_s x_0 x_1 w_2 4 (bvadd (_ bv63 6) ?x4305)) (stack_s x_0 x_1 w_2 3 (bvadd (_ bv62 6) ?x275)))))
 (let (($x10213 (not (= ((_ extract 6 6) (bvadd (_ bv1 7) (concat (_ bv0 1) (sc_s 2)))) (_ bv0 1)))))
 (let (($x2770 (not (bvsle (_ bv0 6) (bvadd (_ bv62 6) (sc_s 2))))))
 (let (($x247 (exc_halt_s 2)))
 (let (($x292 (exc_halt_s 3)))
 (let (($x9966 (forall ((w (_ BitVec 256)) )(let ((?x4257 (storage_s x_0 x_1 w_2 2 w)))
 (let ((?x8826 (storage_s x_0 x_1 w_2 3 w)))
 (= ?x8826 ?x4257))))
 ))
 (let (($x9390 (forall ((n (_ BitVec 6)) )(let ((?x218 (sc_s 2)))
 (let ((?x4488 (bvadd (_ bv62 6) ?x218)))
 (let (($x9325 (bvsle ?x4488 n)))
 (let ((?x8726 (stack_s x_0 x_1 w_2 2 n)))
 (let ((?x5261 (stack_s x_0 x_1 w_2 3 n)))
 (or (= ?x5261 ?x8726) $x9325)))))))
 ))
 (let (($x4099 (= ?x275 (bvadd (_ bv1 6) (sc_s 2)))))
 (let ((?x5298 (used_gas_s x_0 x_1 w_2 3)))
 (let ((?x218 (sc_s 2)))
 (let ((?x8683 (bvadd (_ bv63 6) ?x218)))
 (let ((?x5246 (stack_s x_0 x_1 w_2 2 ?x8683)))
 (let ((?x4488 (bvadd (_ bv62 6) ?x218)))
 (let ((?x4570 (stack_s x_0 x_1 w_2 2 ?x4488)))
 (let (($x92 (= $x247 (or (exc_halt_s 1) (not (bvsle (_ bv0 6) (bvadd (_ bv62 6) (sc_s 1))))))))
 (let (($x7198 (forall ((w (_ BitVec 256)) )(let ((?x6275 (storage_s x_0 x_1 w_2 1 w)))
 (let ((?x4257 (storage_s x_0 x_1 w_2 2 w)))
 (= ?x4257 ?x6275))))
 ))
 (let (($x10777 (forall ((n (_ BitVec 6)) )(let ((?x154 (sc_s 1)))
 (let ((?x6309 (bvadd (_ bv62 6) ?x154)))
 (let (($x4798 (bvsle ?x6309 n)))
 (let ((?x10856 (stack_s x_0 x_1 w_2 1 n)))
 (let ((?x8726 (stack_s x_0 x_1 w_2 2 n)))
 (or (= ?x8726 ?x10856) $x4798)))))))
 ))
 (let ((?x154 (sc_s 1)))
 (let (($x3954 (= ?x218 ?x154)))
 (let ((?x5161 (used_gas_s x_0 x_1 w_2 2)))
 (let (($x8123 (not (= ((_ extract 6 6) (bvadd (_ bv1 7) (concat (_ bv0 1) ?x72))) (_ bv0 1)))))
 (let (($x189 (exc_halt_s 1)))
 (let (($x820 (forall ((w (_ BitVec 256)) )(let ((?x10680 (storage_s x_0 x_1 w_2 0 w)))
 (let ((?x6275 (storage_s x_0 x_1 w_2 1 w)))
 (= ?x6275 ?x10680))))
 ))
 (let (($x6007 (forall ((n (_ BitVec 6)) )(let ((?x8745 (stack_s x_0 x_1 w_2 0 n)))
 (let ((?x10856 (stack_s x_0 x_1 w_2 1 n)))
 (or (= ?x10856 ?x8745) (bvsle (bvadd (_ bv62 6) (sc_s 0)) n)))))
 ))
 (let (($x6741 (= ?x154 (bvadd (_ bv1 6) ?x72))))
 (let (($x4650 (= (stack_s x_0 x_1 w_2 1 (bvadd (_ bv63 6) ?x72)) (stack_s x_0 x_1 w_2 0 (bvadd (_ bv63 6) ?x72)))))
 (let ((?x5743 (bvadd (_ bv62 6) ?x72)))
 (let ((?x3136 (stack_s x_0 x_1 w_2 0 ?x5743)))
 (let (($x2975 (forall ((w (_ BitVec 256)) )(let ((?x10680 (storage_s x_0 x_1 w_2 0 w)))
 (= ?x10680 (_ bv0 256))))
 ))
 (let (($x5825 (= ?x7835 0)))
 (let (($x3561 (not $x57)))
 (let (($x5523 (= (stack_s x_0 x_1 w_2 0 (_ bv1 6)) x_1)))
 (let (($x10748 (= (stack_s x_0 x_1 w_2 0 (_ bv0 6)) x_0)))
 (let (($x11128 (= ?x72 (_ bv2 6))))
 (and $x11128 $x10748 $x5523 $x3561 $x5825 $x2975 (= (stack_s x_0 x_1 w_2 1 (bvadd (_ bv63 6) ?x154)) ?x3136) (= (stack_s x_0 x_1 w_2 1 ?x5743) ?x3136) $x4650 (= (used_gas_s x_0 x_1 w_2 1) (+ 3 ?x7835)) $x6741 $x6007 $x820 (= $x189 (or $x57 $x8123 (not (bvsle (_ bv0 6) ?x5743)))) (= ?x5246 (stack_s x_0 x_1 w_2 1 (bvadd (_ bv62 6) ?x154))) (= ?x4570 (stack_s x_0 x_1 w_2 1 (bvadd (_ bv63 6) ?x154))) (= ?x5161 (+ 3 (used_gas_s x_0 x_1 w_2 1))) $x3954 $x10777 $x7198 $x92 (= ?x9723 ?x4570) (= (stack_s x_0 x_1 w_2 3 ?x4488) ?x4570) (= (stack_s x_0 x_1 w_2 3 ?x8683) ?x5246) (= ?x5298 (+ 3 ?x5161)) $x4099 $x9390 $x9966 (= $x292 (or $x247 $x2770 $x10213)) $x8230 (= (stack_s x_0 x_1 w_2 4 (bvadd (_ bv62 6) ?x4305)) ?x9723) (= ?x3584 (+ 3 ?x5298)) $x7278 $x10895 $x4683 $x10798 (= (stack_s x_0 x_1 w_2 5 ?x4305) w_2) (= ?x6216 (+ 3 ?x3584)) $x2447 $x10294 $x11606 (= $x11317 (or $x7172 $x5185)) (= (stack_s x_0 x_1 w_2 6 (bvadd (_ bv63 6) ?x926)) ?x1335) (= (stack_s x_0 x_1 w_2 6 ?x4176) ?x1335) $x1281 (= ?x926 (bvadd (_ bv1 6) ?x4319)) $x7024 $x8429 (= $x772 $x2460) (= ?x2070 ?x3667) (= (stack_t x_0 x_1 w_2 1 ?x5177) ?x3667) $x5707 (= (used_gas_t x_0 x_1 w_2 1) (+ 3 ?x2104)) $x3399 $x5148 $x7490 $x10988 (= ?x3833 ?x4474) (= (stack_t x_0 x_1 w_2 2 ?x8848) ?x4474) $x4021 (= (stack_t x_0 x_1 w_2 2 ?x8470) ?x2070) (= ?x5436 (+ 3 (used_gas_t x_0 x_1 w_2 1))) $x10587 $x1465 $x11273 (= $x11434 (or (not (bvsle (_ bv0 6) ?x8848)) $x8377 $x10144)) $x10173 (= (stack_t x_0 x_1 w_2 3 (bvadd (_ bv61 6) (sc_t 3))) ?x3833) $x9898 (= ?x10188 (+ 3 ?x5436)) (= (sc_t 3) ?x6158) $x630 $x5317 $x1269 (= (stack_t x_0 x_1 w_2 4 (sc_t 3)) w_2) (= ?x9473 (+ 3 ?x10188)) $x4630 $x1709 $x9094 (= $x7854 (or $x3614 $x1673)) (= (stack_t x_0 x_1 w_2 5 ?x4818) w_2) $x1818 (= ?x8961 (bvadd (_ bv1 6) ?x4818)) $x11383 $x1377 (= $x1885 $x3648) $x73 $x4693 $x58 $x2576 $x11553 (not (and $x5889 $x2354 $x11108 $x9494)))))))))))))))))))))))))))))))))))))))))))))))))))))))))))))))))))))))))))))))))))))))))))))))))))))))))))))))))))))))))))
 )
(check-sat)
(get-proof)
